c THIS FORMULA IS GENERATED BY CNF
c 
c atomics
c X_PI <= 42.09_3_s:1
c X_PI <= 42.09_1_s:2
c X_PI <= 48.12_1_n:3
c X_GS <= 37.89_2_p:4
c C_1_1:5
c X_GS <= 37.89_1_p:6
c X_PI <= 48.12_3_n:7
c X_GS <= 37.89_3_s:8
c X_GS <= 37.89_2_n:9
c X_PI <= 48.12_2_n:10
c X_PI <= 48.12_1_p:11
c X_PI <= 48.12_2_p:12
c X_GS <= 37.89_1_s:13
c X_PI <= 42.09_2_p:14
c X_PI <= 42.09_2_s:15
c C_2_2:16
c X_PI <= 42.09_1_p:17
c X_PI <= 42.09_3_n:18
c X_GS <= 37.89_3_n:19
c X_PI <= 42.09_2_n:20
c X_PI <= 42.09_1_n:21
c C_3_1:22
c C_2_1:23
c X_PI <= 42.09_3_p:24
c X_GS <= 37.89_3_p:25
c X_GS <= 37.89_1_n:26
c X_PI <= 48.12_3_s:27
c X_GS <= 37.89_2_s:28
c C_3_2:29
c X_PI <= 48.12_1_s:30
c X_PI <= 48.12_3_p:31
c C_1_2:32
c X_PI <= 48.12_2_s:33
c end atomics
p cnf 33 268
17 -17 -17 0
17 -17 -21 0
17 -17 2 0
17 21 -17 0
17 21 -21 0
17 21 2 0
17 -2 -17 0
17 -2 -21 0
17 -2 2 0
-21 -17 -17 0
-21 -17 -21 0
-21 -17 2 0
-21 21 -17 0
-21 21 -21 0
-21 21 2 0
-21 -2 -17 0
-21 -2 -21 0
-21 -2 2 0
-2 -17 -17 0
-2 -17 -21 0
-2 -17 2 0
-2 21 -17 0
-2 21 -21 0
-2 21 2 0
-2 -2 -17 0
-2 -2 -21 0
-2 -2 2 0
11 -11 -11 0
11 -11 -3 0
11 -11 30 0
11 3 -11 0
11 3 -3 0
11 3 30 0
11 -30 -11 0
11 -30 -3 0
11 -30 30 0
-3 -11 -11 0
-3 -11 -3 0
-3 -11 30 0
-3 3 -11 0
-3 3 -3 0
-3 3 30 0
-3 -30 -11 0
-3 -30 -3 0
-3 -30 30 0
-30 -11 -11 0
-30 -11 -3 0
-30 -11 30 0
-30 3 -11 0
-30 3 -3 0
-30 3 30 0
-30 -30 -11 0
-30 -30 -3 0
-30 -30 30 0
6 -6 -6 0
6 -6 -26 0
6 -6 13 0
6 26 -6 0
6 26 -26 0
6 26 13 0
6 -13 -6 0
6 -13 -26 0
6 -13 13 0
-26 -6 -6 0
-26 -6 -26 0
-26 -6 13 0
-26 26 -6 0
-26 26 -26 0
-26 26 13 0
-26 -13 -6 0
-26 -13 -26 0
-26 -13 13 0
-13 -6 -6 0
-13 -6 -26 0
-13 -6 13 0
-13 26 -6 0
-13 26 -26 0
-13 26 13 0
-13 -13 -6 0
-13 -13 -26 0
-13 -13 13 0
14 -14 -14 0
14 -14 -20 0
14 -14 15 0
14 20 -14 0
14 20 -20 0
14 20 15 0
14 -15 -14 0
14 -15 -20 0
14 -15 15 0
-20 -14 -14 0
-20 -14 -20 0
-20 -14 15 0
-20 20 -14 0
-20 20 -20 0
-20 20 15 0
-20 -15 -14 0
-20 -15 -20 0
-20 -15 15 0
-15 -14 -14 0
-15 -14 -20 0
-15 -14 15 0
-15 20 -14 0
-15 20 -20 0
-15 20 15 0
-15 -15 -14 0
-15 -15 -20 0
-15 -15 15 0
12 -12 -12 0
12 -12 -10 0
12 -12 33 0
12 10 -12 0
12 10 -10 0
12 10 33 0
12 -33 -12 0
12 -33 -10 0
12 -33 33 0
-10 -12 -12 0
-10 -12 -10 0
-10 -12 33 0
-10 10 -12 0
-10 10 -10 0
-10 10 33 0
-10 -33 -12 0
-10 -33 -10 0
-10 -33 33 0
-33 -12 -12 0
-33 -12 -10 0
-33 -12 33 0
-33 10 -12 0
-33 10 -10 0
-33 10 33 0
-33 -33 -12 0
-33 -33 -10 0
-33 -33 33 0
4 -4 -4 0
4 -4 -9 0
4 -4 28 0
4 9 -4 0
4 9 -9 0
4 9 28 0
4 -28 -4 0
4 -28 -9 0
4 -28 28 0
-9 -4 -4 0
-9 -4 -9 0
-9 -4 28 0
-9 9 -4 0
-9 9 -9 0
-9 9 28 0
-9 -28 -4 0
-9 -28 -9 0
-9 -28 28 0
-28 -4 -4 0
-28 -4 -9 0
-28 -4 28 0
-28 9 -4 0
-28 9 -9 0
-28 9 28 0
-28 -28 -4 0
-28 -28 -9 0
-28 -28 28 0
24 -24 -24 0
24 -24 -18 0
24 -24 1 0
24 18 -24 0
24 18 -18 0
24 18 1 0
24 -1 -24 0
24 -1 -18 0
24 -1 1 0
-18 -24 -24 0
-18 -24 -18 0
-18 -24 1 0
-18 18 -24 0
-18 18 -18 0
-18 18 1 0
-18 -1 -24 0
-18 -1 -18 0
-18 -1 1 0
-1 -24 -24 0
-1 -24 -18 0
-1 -24 1 0
-1 18 -24 0
-1 18 -18 0
-1 18 1 0
-1 -1 -24 0
-1 -1 -18 0
-1 -1 1 0
31 -31 -31 0
31 -31 -7 0
31 -31 27 0
31 7 -31 0
31 7 -7 0
31 7 27 0
31 -27 -31 0
31 -27 -7 0
31 -27 27 0
-7 -31 -31 0
-7 -31 -7 0
-7 -31 27 0
-7 7 -31 0
-7 7 -7 0
-7 7 27 0
-7 -27 -31 0
-7 -27 -7 0
-7 -27 27 0
-27 -31 -31 0
-27 -31 -7 0
-27 -31 27 0
-27 7 -31 0
-27 7 -7 0
-27 7 27 0
-27 -27 -31 0
-27 -27 -7 0
-27 -27 27 0
25 -25 -25 0
25 -25 -19 0
25 -25 8 0
25 19 -25 0
25 19 -19 0
25 19 8 0
25 -8 -25 0
25 -8 -19 0
25 -8 8 0
-19 -25 -25 0
-19 -25 -19 0
-19 -25 8 0
-19 19 -25 0
-19 19 -19 0
-19 19 8 0
-19 -8 -25 0
-19 -8 -19 0
-19 -8 8 0
-8 -25 -25 0
-8 -25 -19 0
-8 -25 8 0
-8 19 -25 0
-8 19 -19 0
-8 19 8 0
-8 -8 -25 0
-8 -8 -19 0
-8 -8 8 0
-2 -30 -13 0
-15 -33 -28 0
-1 -27 -8 0
17 11 26 0
14 12 9 0
24 31 19 0
-17 -5 0
-3 -5 0
-6 -5 0
-14 -23 0
-10 -23 0
-4 -23 0
-24 -22 0
-7 -22 0
-25 -22 0
-17 -32 0
-3 -32 0
-6 -32 0
-14 -16 0
-10 -16 0
-4 -16 0
-24 -29 0
-7 -29 0
-25 -29 0
5 23 22 0
32 16 29 0
